# Solution for model GasLib-40
# Objective value = 5.8239003744353788e+01
loadshed[innode_1] 0
loadshed[innode_2] 0
loadshed[innode_3] 0
loadshed[innode_4] 0
loadshed[innode_5] 0
loadshed[innode_6] 0
loadshed[innode_7] 0
loadshed[innode_8] 0
loadshed[source_1] -3.0883826075646992e-02
loadshed[source_2] 1.2286242628104138e-01
loadshed[source_3] 2.7641219879244960e-01
loadshed[sink_1] 6.4686831877315065e-01
loadshed[sink_2] 0
loadshed[sink_3] 0
loadshed[sink_4] 0
loadshed[sink_5] 0
loadshed[sink_6] 0
loadshed[sink_7] 0
loadshed[sink_8] 0
loadshed[sink_9] 0
loadshed[sink_10] 0
loadshed[sink_11] 0
loadshed[sink_12] 1
loadshed[sink_13] 0
loadshed[sink_14] 0
loadshed[sink_15] 0
loadshed[sink_16] 0
loadshed[sink_17] 0
loadshed[sink_18] 0
loadshed[sink_19] 0
loadshed[sink_20] 0
loadshed[sink_21] 1
loadshed[sink_22] 0
loadshed[sink_23] 0
loadshed[sink_24] 9.1424273820644375e-01
loadshed[sink_25] 0
loadshed[sink_26] 0
loadshed[sink_27] 0
loadshed[sink_28] 0
loadshed[sink_29] 0
flow[source_1,sink_3] 1.6297271042091739e+02
flow[innode_1,sink_16] 1.6354166666666970e+01
flow[innode_6,sink_13] 8.6970177154100270e-02
flow[sink_13,sink_14] -1.6267196489512568e+01
flow[sink_14,sink_10] -3.2621363156179235e+01
flow[sink_25,sink_26] 4.9062500000001251e+01
flow[sink_26,sink_9] 3.2708333333334551e+01
flow[sink_9,sink_18] 1.6354166666667879e+01
flow[sink_26,sink_4] 0
flow[sink_4,sink_20] -1.0530266292231289e+02
flow[sink_18,sink_6] 0
flow[sink_25,innode_8] -130.264377087581
flow[sink_6,sink_7] -3.8483507703397436e+01
flow[sink_6,sink_22] 2.2129341036730768e+01
flow[sink_7,sink_24] 1.4024885522487862e+00
flow[sink_22,sink_1] 5.7751743700640992e+00
flow[sink_24,sink_21] 0
flow[sink_21,sink_12] 0
flow[sink_7,sink_5] -5.6240162922312884e+01
flow[sink_5,sink_17] -7.2594329588979548e+01
flow[sink_17,sink_4] -8.8948496255646219e+01
flow[sink_17,sink_8] 0
flow[sink_3,sink_23] 16.3541666666697
flow[sink_8,sink_20] -1.6354166666668334e+01
flow[sink_25,sink_20] 1.3801099625564788e+02
flow[sink_25,sink_15] -7.3250256011888908e+01
flow[sink_15,sink_29] -5.1415531723302166e+01
flow[sink_29,sink_28] 1.6354166666667879e+01
flow[sink_29,sink_2] 5.4543057621919743e+01
flow[sink_2,sink_15] 3.8188890955253072e+01
flow[sink_29,innode_7] -1.3866692267855620e+02
flow[innode_4,sink_19] 4.4143851218295993e+01
flow[sink_19,innode_3] 3.9861380432816567e+01
flow[innode_4,innode_5] 7.0248345271217090e+01
flow[sink_27,innode_5] -7.0248345271217090e+01
flow[sink_27,sink_19] 5.3894178604550419e+01
flow[sink_10,sink_11] 3.2708333333333641e+01
flow[sink_10,innode_2] -4.1822482723362974e+01
flow[sink_10,innode_3] -3.9861380432816567e+01
flow[innode_6,sink_25] -8.6970177154100270e-02
flow[sink_11,innode_1] 1.6354166666666970e+01
flow[sink_19,innode_2] 4.1822482723362974e+01
flow[source_3,innode_4] 1.1439219648951308e+02
flow[source_2,innode_7] 1.3866692267855620e+02
flow[sink_3,innode_8] 130.264377087581
pressure[innode_1] 7.6862677855928737e+01
pressure[innode_2] 7.9224870107972848e+01
pressure[innode_3] 7.9136601594816042e+01
pressure[innode_4] 81.01325
pressure[innode_5] 8.0964929483915739e+01
pressure[innode_6] 75.4428024096774
pressure[innode_7] 81.01325
pressure[innode_8] 8.0468494486894855e+01
pressure[source_1] 81.01325
pressure[source_2] 81.01325
pressure[source_3] 81.01325
pressure[sink_1] 1.0132499999999998e+00
pressure[sink_2] 7.5922815840256817e+01
pressure[sink_3] 8.0468494486894855e+01
pressure[sink_4] 3.4815909907745933e+01
pressure[sink_5] 26.0088388519619
pressure[sink_6] 2.0907080613267945e+00
pressure[sink_7] 2.6189948912956531e+00
pressure[sink_8] 4.1401747466798376e+01
pressure[sink_9] 7.0029681179601113e+01
pressure[sink_10] 7.7014379163532283e+01
pressure[sink_11] 7.6862677855928737e+01
pressure[sink_12] 1.01325
pressure[sink_13] 7.5442322957624810e+01
pressure[sink_14] 7.5471434491401553e+01
pressure[sink_15] 7.5798137527983911e+01
pressure[sink_16] 7.5841028021111057e+01
pressure[sink_17] 3.1416591679455287e+01
pressure[sink_18] 6.9437938685801413e+01
pressure[sink_19] 7.9224870107972848e+01
pressure[sink_20] 4.2541402890386664e+01
pressure[sink_21] 1.01325
pressure[sink_22] 1.3889005856770613e+00
pressure[sink_23] 8.0303776475235068e+01
pressure[sink_24] 1.01325
pressure[sink_25] 75.4428024096774
pressure[sink_26] 7.1987359347485722e+01
pressure[sink_27] 8.0381998023149535e+01
pressure[sink_28] 7.7009170771776922e+01
pressure[sink_29] 77.3044530453941
interdiction[source_1,sink_3] 0
interdiction[innode_1,sink_16] 0
interdiction[innode_6,sink_13] 0
interdiction[sink_13,sink_14] 0
interdiction[sink_14,sink_10] 0
interdiction[sink_25,sink_26] 0
interdiction[sink_26,sink_9] 0
interdiction[sink_9,sink_18] 0
interdiction[sink_26,sink_4] 1
interdiction[sink_4,sink_20] 0
interdiction[sink_18,sink_6] 1
interdiction[sink_25,innode_8] 0
interdiction[sink_6,sink_7] 0
interdiction[sink_6,sink_22] 0
interdiction[sink_7,sink_24] 0
interdiction[sink_22,sink_1] 0
interdiction[sink_24,sink_21] 0
interdiction[sink_21,sink_12] 0
interdiction[sink_7,sink_5] 0
interdiction[sink_5,sink_17] 0
interdiction[sink_17,sink_4] 0
interdiction[sink_17,sink_8] 1
interdiction[sink_3,sink_23] 0
interdiction[sink_8,sink_20] 0
interdiction[sink_25,sink_20] 0
interdiction[sink_25,sink_15] 0
interdiction[sink_15,sink_29] 0
interdiction[sink_29,sink_28] 0
interdiction[sink_29,sink_2] 0
interdiction[sink_2,sink_15] 0
interdiction[sink_29,innode_7] 0
interdiction[innode_4,sink_19] 0
interdiction[sink_19,innode_3] 0
interdiction[innode_4,innode_5] 0
interdiction[sink_27,innode_5] 0
interdiction[sink_27,sink_19] 0
interdiction[sink_10,sink_11] 0
interdiction[sink_10,innode_2] 0
interdiction[sink_10,innode_3] 0
interdiction[innode_6,sink_25] 0
interdiction[sink_11,innode_1] 0
interdiction[sink_19,innode_2] 0
interdiction[source_3,innode_4] 0
interdiction[source_2,innode_7] 0
interdiction[sink_3,innode_8] 0
WCcheckFlow[source_1,sink_3] 39
WCcheckFlow[innode_1,sink_16] 1
WCcheckFlow[innode_6,sink_13] 13
WCcheckFlow[sink_13,sink_14] 12
WCcheckFlow[sink_14,sink_10] 11
WCcheckFlow[sink_25,sink_26] 3
WCcheckFlow[sink_26,sink_9] 2
WCcheckFlow[sink_9,sink_18] 1
WCcheckFlow[sink_26,sink_4] 0
WCcheckFlow[sink_4,sink_20] -10
WCcheckFlow[sink_18,sink_6] 0
WCcheckFlow[sink_25,innode_8] -36
WCcheckFlow[sink_6,sink_7] -3
WCcheckFlow[sink_6,sink_22] 2
WCcheckFlow[sink_7,sink_24] 3
WCcheckFlow[sink_22,sink_1] 1
WCcheckFlow[sink_24,sink_21] 2
WCcheckFlow[sink_21,sink_12] 1
WCcheckFlow[sink_7,sink_5] -7
WCcheckFlow[sink_5,sink_17] -8
WCcheckFlow[sink_17,sink_4] -9
WCcheckFlow[sink_17,sink_8] 0
WCcheckFlow[sink_3,sink_23] 1
WCcheckFlow[sink_8,sink_20] -1
WCcheckFlow[sink_25,sink_20] 12
WCcheckFlow[sink_25,sink_15] 6
WCcheckFlow[sink_15,sink_29] 5
WCcheckFlow[sink_29,sink_28] 1
WCcheckFlow[sink_29,sink_2] 1
WCcheckFlow[sink_2,sink_15] 0
WCcheckFlow[sink_29,innode_7] 2
WCcheckFlow[innode_4,sink_19] -4
WCcheckFlow[sink_19,innode_3] -5
WCcheckFlow[innode_4,innode_5] 2
WCcheckFlow[sink_27,innode_5] -1
WCcheckFlow[sink_27,sink_19] 0
WCcheckFlow[sink_10,sink_11] 3
WCcheckFlow[sink_10,innode_2] 1
WCcheckFlow[sink_10,innode_3] 6
WCcheckFlow[innode_6,sink_25] -14
WCcheckFlow[sink_11,innode_1] 2
WCcheckFlow[sink_19,innode_2] 0
WCcheckFlow[source_3,innode_4] -1
WCcheckFlow[source_2,innode_7] -1
WCcheckFlow[sink_3,innode_8] 37
